Solver command line: []

Read LP format model from file C:\Users\wlhlm\AppData\Local\Temp\tmp4gheowzh.pyomo.lp
Reading time = 38.18 seconds
objective: 1005744 rows, 878399 columns, 79411710 nonzeros
Set parameter MIPGap to value 0.03
Gurobi Optimizer version 12.0.1 build v12.0.1rc0 (win64 - Windows 11.0 (26100.2))

CPU model: Intel(R) Core(TM) Ultra 7 258V, instruction set [SSE2|AVX|AVX2]
Thread count: 8 physical cores, 8 logical processors, using up to 8 threads

Non-default parameters:
MIPGap  0.03

Optimize a model with 1005744 rows, 878399 columns and 79411710 nonzeros
Model fingerprint: 0x00308647
Model has 8783 quadratic constraints
Variable types: 755424 continuous, 122975 integer (105408 binary)
Coefficient statistics:
  Matrix range     [8e-03, 2e+02]
  QMatrix range    [1e+00, 1e+00]
  Objective range  [1e-02, 4e+02]
  Bounds range     [1e+00, 3e+00]
  RHS range        [8e-05, 1e+04]
Presolve removed 158112 rows and 122976 columns (presolve time = 12s)...
Presolve removed 619252 rows and 496275 columns (presolve time = 18s)...
Presolve removed 658759 rows and 531413 columns (presolve time = 23s)...
Presolve removed 680694 rows and 548981 columns (presolve time = 28s)...
Presolve removed 698969 rows and 556154 columns (presolve time = 35s)...
Presolve removed 698969 rows and 558936 columns (presolve time = 36s)...
Presolve removed 704612 rows and 561797 columns (presolve time = 40s)...
Presolve removed 704891 rows and 562076 columns (presolve time = 49s)...
Presolve removed 704891 rows and 562076 columns (presolve time = 53s)...
Presolve removed 713674 rows and 562076 columns (presolve time = 63s)...
Presolve removed 713674 rows and 562076 columns (presolve time = 66s)...
Presolve removed 713674 rows and 562077 columns (presolve time = 70s)...
Presolve removed 713674 rows and 562077 columns (presolve time = 78s)...
Presolve removed 800680 rows and 657751 columns
Presolve time: 79.01s
Presolved: 205064 rows, 220648 columns, 636769 nonzeros
Variable types: 148749 continuous, 71899 integer (63116 binary)
Performing another presolve...
Presolve removed 61487 rows and 61488 columns
Presolve time: 4.19s
Deterministic concurrent LP optimizer: primal and dual simplex
Showing primal log only...


Root simplex log...

Iteration    Objective       Primal Inf.    Dual Inf.      Time
       0    6.6829637e+07   1.935769e+06   3.245452e+13     85s
Concurrent spin time: 0.00s

Solved with dual simplex

Root simplex log...

Iteration    Objective       Primal Inf.    Dual Inf.      Time
   62983    6.1049880e+07   0.000000e+00   0.000000e+00     87s

Root relaxation: objective 6.104988e+07, 62983 iterations, 2.67 seconds (4.20 work units)
Total elapsed time = 87.33s (DegenMoves)

    Nodes    |    Current Node    |     Objective Bounds      |     Work
 Expl Unexpl |  Obj  Depth IntInf | Incumbent    BestBd   Gap | It/Node Time

     0     0 6.1050e+07    0  363          - 6.1050e+07      -     -   89s
H    0     0                    6.108041e+07 6.1050e+07  0.05%     -   90s

Explored 1 nodes (70675 simplex iterations) in 90.68 seconds (63.24 work units)
Thread count was 8 (of 8 available processors)

Solution count 1: 6.10804e+07 

Optimal solution found (tolerance 3.00e-02)
Best objective 6.108041057901e+07, best bound 6.104987965076e+07, gap 0.0500%

